p cnf 50 148
a 32 36 0
e 1 2 3 4 5 6 7 8 9 10 11 12 13 14 15 16 17 18 19 20 21 22 23 24 25 26 27 28 29 30 31 33 34 35 37 38 39 40 41 42 43 44 45 46 47 48 49 50 0
-4 2 0
-4 -3 0
-2 3 4 0
4 3 -5 0
-4 -3 -5 0
4 -3 5 0
-4 3 5 0
-6 1 0
-6 -5 0
-1 5 6 0
8 4 0
8 -7 0
-4 7 -8 0
-9 6 0
-9 8 0
-6 -8 9 0
10 -3 -11 0
-10 3 -11 0
10 3 11 0
-10 -3 11 0
-12 -10 0
-12 10 0
10 12 -13 0
-10 -12 -13 0
10 -12 13 0
-10 12 13 0
-15 14 0
-15 7 0
-14 -7 15 0
16 13 0
16 15 0
-13 -15 -16 0
-17 -11 0
-17 16 0
11 -16 17 0
-18 -2 0
-18 -3 0
2 3 18 0
-11 18 -19 0
11 -18 -19 0
-11 -18 19 0
11 18 19 0
20 17 0
20 19 0
-17 -19 -20 0
21 4 0
21 -2 0
-4 2 -21 0
-7 -23 -24 0
7 23 -24 0
-7 23 24 0
7 -23 24 0
-10 25 -26 0
10 -25 -26 0
-10 -25 26 0
10 25 26 0
27 24 0
27 26 0
-24 -26 -27 0
-28 22 0
-28 -27 0
-22 27 28 0
-3 -29 -30 0
3 29 -30 0
-3 29 30 0
3 -29 30 0
-31 30 0
-31 11 0
-30 -11 31 0
32 29 0
32 31 0
-29 -31 -32 0
33 28 0
33 32 0
-28 -32 -33 0
-21 33 -34 0
21 -33 -34 0
-21 -33 34 0
21 33 34 0
35 25 0
35 -23 0
-25 23 -35 0
-22 -24 -36 0
22 24 -36 0
-22 24 36 0
22 -24 36 0
-37 -35 0
-37 36 0
35 -36 37 0
-34 37 -38 0
34 -37 -38 0
-34 -37 38 0
34 37 38 0
39 20 0
39 -38 0
-20 38 -39 0
3 -31 -40 0
-3 31 -40 0
3 31 40 0
-3 -31 40 0
39 40 -41 0
-39 -40 -41 0
39 -40 41 0
-39 40 41 0
42 -9 0
42 41 0
9 -41 -42 0
-43 12 0
-43 -29 0
-12 29 43 0
2 -23 -44 0
-2 23 -44 0
2 23 44 0
-2 -23 44 0
31 44 -45 0
-31 -44 -45 0
31 -44 45 0
-31 44 45 0
-13 12 -46 0
13 -12 -46 0
-13 -12 46 0
13 12 46 0
-47 22 0
-47 -46 0
-22 46 47 0
-48 45 0
-48 47 0
-45 -47 48 0
-49 -43 0
-49 48 0
43 -48 49 0
-50 42 0
-50 -49 0
-42 49 50 0
42 -11 -18 0
9 13 8 -30 49 0
-16 -5 -4 -46 -37 0
6 -32 4 15 -17 33 0
8 -5 -6 4 -13 20 -45 0
46 -6 -29 -12 10 23 0
-18 7 14 -28 -34 0
-50 36 -37 -38 13 0
-5 10 -9 29 0
-4 -28 -49 40 46 42 0
47 12 41 -13 -32 -49 0
32 16 -7 0
40 -20 10 43 14 -44 -2 0
50 0
